24 = ndim
6 = nblocks
6 6 6 6 6 6 = blockstruct
0.0, 0.0, 0.0, 0.0, 0.0, 0.0, 0.0, 0.0, 0.0, 0.0, 0.0, 0.0, 0.0, 0.0, 0.0, 0.0, 0.0, 0.0, 0.0, 0.0, 0.0, 0.0, 0.0, 0.0 = objcoeffs
0 1 3 3 -9.856000500550522
0 2 1 1 5.35084506456557
0 2 1 2 0.30089975113888023
0 2 1 3 -0.7441963036606067
0 2 1 6 -0.0038250439209814857
0 2 2 3 0.157512512631655
0 2 2 6 -11.838061863852637
0 2 3 3 -5.898690372678921
0 2 3 4 0.0038250439209814857
0 2 3 5 11.838061863852637
0 3 1 1 3.1795113018325147
0 3 1 2 -0.398423332367377
0 3 1 3 0.7199377042307741
0 3 1 6 -0.017890556103868516
0 3 2 3 -0.06940762602034534
0 3 2 6 -6.766976812800758
0 3 3 3 -3.375299368028672
0 3 3 4 0.017890556103868516
0 3 3 5 6.766976812800758
0 4 1 1 -0.21151671966890873
0 4 1 2 0.012049026477632896
0 4 1 3 -0.04930860748322466
0 4 1 6 -0.5709911041172326
0 4 2 3 -0.012648688978451061
0 4 2 6 -0.002515645020671569
0 4 3 3 -0.30962948995034745
0 4 3 4 0.5709911041172326
0 4 3 5 0.002515645020671569
0 5 1 1 -0.028238543623365964
0 5 1 2 -0.0015847562879634028
0 5 1 3 -0.013268108197933799
0 5 1 6 0.08944848564804662
0 5 2 3 -0.0031687955180358836
0 5 2 6 0.000991354446078209
0 5 3 3 -0.15515941752102733
0 5 3 4 -0.08944848564804662
0 5 3 5 -0.000991354446078209
0 6 1 1 -0.00943935926084952
0 6 1 2 -0.00019416982161030378
0 6 1 3 -0.007653836056117618
0 6 1 6 0.0024764142550113737
0 6 2 3 -0.004207572623267479
0 6 2 6 0.0016311847290718124
0 6 3 3 -0.010684166689390297
0 6 3 4 -0.0024764142550113737
0 6 3 5 -0.0016311847290718124
1 1 1 1 1.0
2 1 1 2 1.0
3 1 1 3 1.0
4 1 2 2 1.0
5 1 2 3 1.0
6 1 2 6 1.0
6 1 3 5 -1.0
7 1 1 6 -1.0
7 1 3 4 1.0
8 1 1 5 1.0
8 1 2 4 -1.0
9 1 4 4 1.0
9 1 5 5 1.0
9 1 6 6 1.0
10 1 3 3 -1.0
10 2 1 1 1.0
10 2 2 2 1.0
11 1 3 3 -0.352
11 2 1 5 1.0
11 2 2 4 -1.0
12 1 3 3 -0.030976
12 2 4 4 1.0
12 2 5 5 1.0
12 2 6 6 1.0
13 1 3 3 -1.0
13 3 1 1 1.0
13 3 2 2 1.0
14 1 3 3 -0.096
14 2 1 3 0.612
14 3 1 5 1.0
14 3 2 4 -1.0
15 1 3 3 -0.376848
15 2 1 1 0.374544
15 2 1 3 -0.078336
15 2 2 6 -0.612
15 2 3 3 -0.374544
15 2 3 5 0.612
15 3 4 4 1.0
15 3 5 5 1.0
15 3 6 6 1.0
16 1 3 3 -1.0
16 4 1 1 1.0
16 4 2 2 1.0
17 1 3 3 -0.328
17 2 1 3 0.612
17 3 1 3 0.572
17 4 1 5 1.0
17 4 2 4 -1.0
18 1 3 3 -0.728624
18 2 1 1 0.374544
18 2 1 3 -0.007344
18 2 2 6 -0.612
18 2 3 3 -0.374544
18 2 3 5 0.612
18 3 1 1 0.327184
18 3 1 3 0.066352
18 3 2 6 -0.572
18 3 3 3 -0.327184
18 3 3 5 0.572
18 4 4 4 1.0
18 4 5 5 1.0
18 4 6 6 1.0
19 4 1 1 -1.0
19 4 3 3 -1.0
19 5 1 1 1.0
19 5 2 2 1.0
20 4 1 1 -0.232
20 4 1 6 -1.0
20 4 3 3 -0.232
20 4 3 4 1.0
20 5 1 5 1.0
20 5 2 4 -1.0
21 1 3 3 -0.728624
21 2 1 1 0.374544
21 2 1 3 -0.007344
21 2 2 6 -0.612
21 2 3 3 -0.374544
21 2 3 5 0.612
21 3 1 1 0.327184
21 3 1 3 0.066352
21 3 2 6 -0.572
21 3 3 3 -0.327184
21 3 3 5 0.572
21 4 1 1 -0.013456
21 4 1 6 -0.116
21 4 3 3 -0.013456
21 4 3 4 0.116
21 5 4 4 1.0
21 5 5 5 1.0
21 5 6 6 1.0
22 5 1 1 -1.0
22 5 3 3 -1.0
22 6 1 1 1.0
22 6 2 2 1.0
23 5 1 1 -0.184
23 5 1 6 1.0
23 5 3 3 -0.184
23 5 3 4 -1.0
23 6 1 5 1.0
23 6 2 4 -1.0
24 1 3 3 -0.728624
24 2 1 1 0.374544
24 2 1 3 -0.007344
24 2 2 6 -0.612
24 2 3 3 -0.374544
24 2 3 5 0.612
24 3 1 1 0.327184
24 3 1 3 0.066352
24 3 2 6 -0.572
24 3 3 3 -0.327184
24 3 3 5 0.572
24 4 1 1 -0.013456
24 4 1 6 -0.116
24 4 3 3 -0.013456
24 4 3 4 0.116
24 5 1 1 -0.008464
24 5 1 6 0.092
24 5 3 3 -0.008464
24 5 3 4 -0.092
24 6 4 4 1.0
24 6 5 5 1.0
24 6 6 6 1.0
